instances/shortest_path/discrete/shortest_path_5_9.kp
12168
99

[0.8034139381160007 4.072392330759926 3.463789169665875 0.09186565356551021 0.26061919943115663 2.7612123540716196 0.4683756134588233 3.1086965782615814 4.831430911400826 3.0258004911249654 1.2232343638629262 3.49991321846775 0.36676970751446336 1.0607510899958899 1.6661439375973797 4.465881408302879]

[71 15 73 2 99 41 56 51 92 93 31 74 15 79 12 32]
